n_res = 4;
rc = [ 9, 8, 10, 10 ];
n_tasks = 30;
d = [ 7, 3, 10, 2, 6, 8, 7, 1, 6, 9, 3, 4, 1, 7, 8, 9, 8, 1, 6, 8, 3, 8, 2, 2, 2, 10, 6, 6, 2, 7 ];
rr = [| 7, 0, 0, 0, 0, 0, 0, 3, 0, 0, 0, 0, 0, 9, 0, 0, 0, 8, 0, 0, 0, 2, 0, 0, 0, 0, 4, 0, 1, 0
      | 0, 8, 0, 5, 0, 0, 0, 0, 5, 2, 3, 0, 0, 0, 0, 0, 0, 0, 0, 0, 3, 0, 0, 7, 0, 0, 0, 6, 0, 0
      | 0, 0, 0, 0, 0, 1, 0, 0, 0, 0, 0, 10, 3, 0, 0, 5, 0, 0, 6, 0, 0, 0, 0, 0, 2, 0, 0, 0, 0, 0
      | 0, 0, 2, 0, 4, 0, 1, 0, 0, 0, 0, 0, 0, 0, 5, 0, 7, 0, 0, 8, 0, 0, 7, 0, 0, 5, 0, 0, 0, 5 |];
suc = [ { 2 }, 
        { 3 }, 
        { 4 }, 
        { 5 }, 
        { 6 }, 
        { 7 }, 
        { 8 }, 
        { 9 }, 
        { 10 }, 
        { 11 }, 
        { 12 }, 
        { 13 }, 
        { 14 }, 
        { 15 }, 
        { 16 }, 
        { 17 }, 
        { 18 }, 
        { 19 }, 
        { 20 }, 
        { 21 }, 
        { 22 }, 
        { 23 }, 
        { 24 }, 
        { 25 }, 
        { 26 }, 
        { 27 }, 
        { 28 }, 
        { 29 }, 
        { 30 }, 
        {  }]; 
